g3 2 1 0	# problem inst_sans_ref
 38 121 1 0 30	# vars, constraints, objectives, ranges, eqns
 30 1	# nonlinear constraints, objectives
 0 0	# network constraints: nonlinear, linear
 8 8 8	# nonlinear vars in constraints, objectives, both
 0 0 0 1	# linear network variables; functions; arith, flags
 0 0 0 0 0	# discrete variables: binary, integer, nonlinear (b,c,o)
 300 35	# nonzeros in Jacobian, gradients
 0 0	# max name lengths: constraints, variables
 0 0 0 0 0	# common exprs: b,c,o,c1,o1
b
0 0 1
0 0 1
0 0 1
0 0 1
0 0 1
0 0 1
0 0 1
0 0 1
0 0 1
0 0 1
0 0 1
0 0 1
0 0 1
0 0 1
0 0 1
0 0 1
0 0 1
0 0 1
0 0 1
0 0 1
0 0 1
0 0 1
0 0 1
0 0 1
0 0 1
0 0 1
0 0 1
0 0 1
0 0 1
0 0 1
0 0 1
0 0 1
0 0 1
0 0 1
0 0 1
0 0 1
0 0 1
0 0 1
r
4 0
4 0
4 0
4 0
4 0
4 0
4 0
4 0
4 0
4 0
4 0
4 0
4 0
4 0
4 0
4 0
4 0
4 0
4 0
4 0
4 0
4 0
4 0
4 0
4 0
4 0
4 0
4 0
4 0
4 0
1 8.52
1 0
1 0
1 0
1 0
1 0
1 0
1 0
1 0
1 0
1 0
1 0
1 0
1 0
1 0
1 0
1 0
1 0
1 0
1 0
1 0
1 0
1 0
1 0
1 0
1 0
1 0
1 0
1 0
1 0
1 0
1 0
1 0
1 0
1 0
1 0
1 0
1 0
1 0
1 0
1 0
1 0
1 0
1 0
1 0
1 0
1 0
1 0
1 0
1 0
1 0
1 0
1 0
2 -1
2 -1
2 -1
2 -1
2 -1
2 -1
2 -1
2 -1
2 -1
2 -1
2 -1
2 -1
2 -1
2 -1
2 -1
2 -1
2 -1
2 -1
2 -1
2 -1
2 -1
2 -1
2 -1
2 -1
2 -1
2 -1
2 -1
2 -1
2 -1
2 -1
2 0
2 0
2 0
2 0
2 0
2 0
2 0
2 0
C0
o16
o2
v0
v0
C1
o16
o2
v0
v4
C2
o16
o2
v0
v6
C3
o16
o2
v0
v7
C4
o16
o2
v1
v1
C5
o16
o2
v1
v2
C6
o16
o2
v1
v3
C7
o16
o2
v1
v4
C8
o16
o2
v1
v5
C9
o16
o2
v1
v6
C10
o16
o2
v1
v7
C11
o16
o2
v2
v2
C12
o16
o2
v2
v3
C13
o16
o2
v2
v4
C14
o16
o2
v2
v5
C15
o16
o2
v2
v6
C16
o16
o2
v2
v7
C17
o16
o2
v3
v3
C18
o16
o2
v3
v4
C19
o16
o2
v3
v5
C20
o16
o2
v3
v6
C21
o16
o2
v3
v7
C22
o16
o2
v4
v4
C23
o16
o2
v4
v7
C24
o16
o2
v5
v5
C25
o16
o2
v5
v6
C26
o16
o2
v5
v7
C27
o16
o2
v6
v6
C28
o16
o2
v6
v7
C29
o16
o2
v7
v7
C30
n0
C31
n0
C32
n0
C33
n0
C34
n0
C35
n0
C36
n0
C37
n0
C38
n0
C39
n0
C40
n0
C41
n0
C42
n0
C43
n0
C44
n0
C45
n0
C46
n0
C47
n0
C48
n0
C49
n0
C50
n0
C51
n0
C52
n0
C53
n0
C54
n0
C55
n0
C56
n0
C57
n0
C58
n0
C59
n0
C60
n0
C61
n0
C62
n0
C63
n0
C64
n0
C65
n0
C66
n0
C67
n0
C68
n0
C69
n0
C70
n0
C71
n0
C72
n0
C73
n0
C74
n0
C75
n0
C76
n0
C77
n0
C78
n0
C79
n0
C80
n0
C81
n0
C82
n0
C83
n0
C84
n0
C85
n0
C86
n0
C87
n0
C88
n0
C89
n0
C90
n0
C91
n0
C92
n0
C93
n0
C94
n0
C95
n0
C96
n0
C97
n0
C98
n0
C99
n0
C100
n0
C101
n0
C102
n0
C103
n0
C104
n0
C105
n0
C106
n0
C107
n0
C108
n0
C109
n0
C110
n0
C111
n0
C112
n0
C113
n0
C114
n0
C115
n0
C116
n0
C117
n0
C118
n0
C119
n0
C120
n0
O0 0
o54
50
o2
o2
n0.276548
v0
v0
o2
o2
n-1.6e-05
v0
v2
o2
o2
n-0.060562
v0
v4
o2
o2
n-0.037233
v0
v6
o2
o2
n0.090969
v1
v1
o2
o2
n-0.212533
v1
v2
o2
o2
n0.014348
v1
v3
o2
o2
n-0.002573
v1
v4
o2
o2
n0.017333
v1
v6
o2
o2
n-0.112982
v1
v7
o2
o2
n-1.6e-05
v2
v0
o2
o2
n-0.212533
v2
v1
o2
o2
n0.914629
v2
v2
o2
o2
n0.179947
v2
v3
o2
o2
n-0.051423
v2
v4
o2
o2
n0.209977
v2
v5
o2
o2
n-0.105881
v2
v6
o2
o2
n0.291024
v2
v7
o2
o2
n0.014348
v3
v1
o2
o2
n0.179947
v3
v2
o2
o2
n0.488274
v3
v3
o2
o2
n-0.11
v3
v4
o2
o2
n0.434795
v3
v5
o2
o2
n0.157375
v3
v6
o2
o2
n0.012546
v3
v7
o2
o2
n-0.060562
v4
v0
o2
o2
n-0.002573
v4
v1
o2
o2
n-0.051423
v4
v2
o2
o2
n-0.11
v4
v3
o2
o2
n0.185769
v4
v4
o2
o2
n0.009685
v4
v7
o2
o2
n0.209977
v5
v2
o2
o2
n0.434795
v5
v3
o2
o2
n0.541807
v5
v5
o2
o2
n0.245138
v5
v6
o2
o2
n0.000454
v5
v7
o2
o2
n-0.037233
v6
v0
o2
o2
n0.017333
v6
v1
o2
o2
n-0.105881
v6
v2
o2
o2
n0.157375
v6
v3
o2
o2
n0.245138
v6
v5
o2
o2
n0.925215
v6
v6
o2
o2
n-0.015341
v6
v7
o2
o2
n-0.112982
v7
v1
o2
o2
n0.291024
v7
v2
o2
o2
n0.012546
v7
v3
o2
o2
n0.009685
v7
v4
o2
o2
n0.000454
v7
v5
o2
o2
n-0.015341
v7
v6
o2
o2
n0.162354
v7
v7
k37
14
37
60
83
103
123
146
172
176
180
184
189
193
197
201
206
211
215
219
223
227
232
236
241
246
250
255
260
264
268
272
276
280
284
288
292
296
J0 2
0 0
8 1
J1 3
0 0
4 0
9 1
J2 3
0 0
6 0
10 1
J3 3
0 0
7 0
11 1
J4 2
1 0
12 1
J5 3
1 0
2 0
13 1
J6 3
1 0
3 0
14 1
J7 3
1 0
4 0
15 1
J8 3
1 0
5 0
16 1
J9 3
1 0
6 0
17 1
J10 3
1 0
7 0
18 1
J11 2
2 0
19 1
J12 3
2 0
3 0
20 1
J13 3
2 0
4 0
21 1
J14 3
2 0
5 0
22 1
J15 3
2 0
6 0
23 1
J16 3
2 0
7 0
24 1
J17 2
3 0
25 1
J18 3
3 0
4 0
26 1
J19 3
3 0
5 0
27 1
J20 3
3 0
6 0
28 1
J21 3
3 0
7 0
29 1
J22 2
4 0
30 1
J23 3
4 0
7 0
31 1
J24 2
5 0
32 1
J25 3
5 0
6 0
33 1
J26 3
5 0
7 0
34 1
J27 2
6 0
35 1
J28 3
6 0
7 0
36 1
J29 2
7 0
37 1
J30 16
0 -0.17
1 -0.39
2 -0.84
3 0.16
4 -0.3
5 -0.74
6 0.08
7 -0.83
11 0.27
15 1.85
16 -0.15
21 1.26
23 1.85
24 1.8
26 1.28
27 -0.41
J31 2
0 -1
8 1
J32 2
0 -1
9 1
J33 2
0 -1
10 1
J34 2
0 -1
11 1
J35 2
1 -1
12 1
J36 2
1 -1
13 1
J37 2
1 -1
14 1
J38 2
1 -1
15 1
J39 2
1 -1
16 1
J40 2
1 -1
17 1
J41 2
1 -1
18 1
J42 2
2 -1
19 1
J43 2
2 -1
20 1
J44 2
2 -1
21 1
J45 2
2 -1
22 1
J46 2
2 -1
23 1
J47 2
2 -1
24 1
J48 2
3 -1
25 1
J49 2
3 -1
26 1
J50 2
3 -1
27 1
J51 2
3 -1
28 1
J52 2
3 -1
29 1
J53 2
4 -1
30 1
J54 2
4 -1
31 1
J55 2
5 -1
32 1
J56 2
5 -1
33 1
J57 2
5 -1
34 1
J58 2
6 -1
35 1
J59 2
6 -1
36 1
J60 2
7 -1
37 1
J61 2
4 -1
9 1
J62 2
6 -1
10 1
J63 2
7 -1
11 1
J64 2
2 -1
13 1
J65 2
3 -1
14 1
J66 2
4 -1
15 1
J67 2
5 -1
16 1
J68 2
6 -1
17 1
J69 2
7 -1
18 1
J70 2
3 -1
20 1
J71 2
4 -1
21 1
J72 2
5 -1
22 1
J73 2
6 -1
23 1
J74 2
7 -1
24 1
J75 2
4 -1
26 1
J76 2
5 -1
27 1
J77 2
6 -1
28 1
J78 2
7 -1
29 1
J79 2
7 -1
31 1
J80 2
6 -1
33 1
J81 2
7 -1
34 1
J82 2
7 -1
36 1
J83 2
0 -2
8 1
J84 3
0 -1
4 -1
9 1
J85 3
0 -1
6 -1
10 1
J86 3
0 -1
7 -1
11 1
J87 2
1 -2
12 1
J88 3
1 -1
2 -1
13 1
J89 3
1 -1
3 -1
14 1
J90 3
1 -1
4 -1
15 1
J91 3
1 -1
5 -1
16 1
J92 3
1 -1
6 -1
17 1
J93 3
1 -1
7 -1
18 1
J94 2
2 -2
19 1
J95 3
2 -1
3 -1
20 1
J96 3
2 -1
4 -1
21 1
J97 3
2 -1
5 -1
22 1
J98 3
2 -1
6 -1
23 1
J99 3
2 -1
7 -1
24 1
J100 2
3 -2
25 1
J101 3
3 -1
4 -1
26 1
J102 3
3 -1
5 -1
27 1
J103 3
3 -1
6 -1
28 1
J104 3
3 -1
7 -1
29 1
J105 2
4 -2
30 1
J106 3
4 -1
7 -1
31 1
J107 2
5 -2
32 1
J108 3
5 -1
6 -1
33 1
J109 3
5 -1
7 -1
34 1
J110 2
6 -2
35 1
J111 3
6 -1
7 -1
36 1
J112 2
7 -2
37 1
J113 2
0 -1
8 1
J114 2
1 -1
12 1
J115 2
2 -1
19 1
J116 2
3 -1
25 1
J117 2
4 -1
30 1
J118 2
5 -1
32 1
J119 2
6 -1
35 1
J120 2
7 -1
37 1
G0 35
0 0.28
1 0.14
2 0.7
3 -0.37
4 0.82
5 -0.54
6 0.99
7 0.88
8 -0.276548
9 0.451124
10 0.074467
12 -0.090969
13 0.425066
14 -0.028696
15 -0.624854
17 -0.034665
18 -0.814035
19 -0.914629
20 -0.359894
21 0.102846
22 0.880047
23 0.211763
24 1.297953
25 -0.488274
27 0.850409
28 0.575251
29 -0.025092
30 -0.185769
31 -0.019371
32 -0.541807
33 -0.490276
34 -0.000908
35 -0.925215
36 0.030682
37 -0.162354
